##------CONJUNTOS
set D := D1 D2 D3 D4;
set K := 1 2;

set I := F1 F2 F3 F4 F5 F6 F7 F8 F9 F10 F11 F12 F13 F14 F15 F16;

# F1 -> Excel 1601, Comuna 16
# F2 -> Excel 1605, Comuna 16
# F3 -> Excel 1604, Comuna 16
# F4 -> Excel 1697, Comuna 16
# F5 -> Excel 595, Comuna 5
# F6 -> Excel 502, Comuna 5
# F7 -> Excel 504, Comuna 5
# F8 -> Excel 506, Comuna 5
# F9 -> Excel 311, Comuna 3
# F10 -> Excel 306, Comuna 3
# F11 -> Excel 304, Comuna 3
# F12 -> Excel 310, Comuna 3
# F13 -> Excel 207, Comuna 2
# F14 -> Excel 218, Comuna 2
# F15 -> Excel 297, Comuna 2
# F16 -> Excel 202, Comuna 2

# Clústeres
set C := C1 C2 C3 C4;
set IC[C1] := F1 F2 F3 F4;
set IC[C2] := F5 F6 F7 F8;
set IC[C3] := F9 F10 F11 F12;
set IC[C4] := F13 F14 F15 F16;

# Número de vehículos por tipo y depósito
set R[D1,1] := V1 V2 V3 V4;
set R[D1,2] := K1 K2;
set R[D2,1] := V5 V6 V7 V8;
set R[D2,2] := K3;
set R[D3,1] := V9 V10 V11 V12;
set R[D3,2] := K4;
set R[D4,1] := V13 V14 V15 V16;
set R[D4,2] := K5 K6;

##------PARAMETROS GLOBALES
param Vel := 25;

##------CAPACIDAD DE VEHÍCULOS (agentes que pueden transportar)
param q :=
1 5
2 10
;

##------POLICÍAS DISPONIBLES en cada depósito
param h :=
D1 40
D2 30
D3 30
D4 40
;

##------VEHÍCULOS DISPONIBLES por tipo y depósito
param v:
	1	2 :=
D1	4	2
D2	4	1
D3	4	1
D4	4	2
;

##-----DISTANCIAS ENTRE NODOS [km]
param dist:
	F1	F2	F3	F4	F5	F6	F7	F8	F9	F10	F11	F12	F13	F14	F15	F16	D1	D2	D3	D4 :=
F1	0	1.37	3.72	2.62	11.41	9.7	10.87	11.37	7.32	6.31	6.64	6.91	7.72	10.04	8.62	7.96	6.09	10.65	5.21	6.32
F2	1.37	0	4.11	2.35	11.82	10.11	11.29	11.78	7.59	6.58	6.85	7.21	7.98	10.36	8.87	8.11	6.4	11.06	5.11	6.71
F3	3.72	4.11	0	4.67	9.5	7.86	8.89	9.37	7.15	6.36	7.09	6.67	7.63	9.23	8.65	8.66	5.86	8.56	7.34	3.55
F4	2.62	2.35	4.67	0	12.91	11.22	12.35	12.85	8.98	7.97	8.25	8.58	9.38	11.7	10.26	9.49	7.76	12.09	6.21	7.14
F5	11.41	11.82	9.5	12.91	0	2.66	1.6	1.35	7.18	7.78	8.57	7.1	7.29	5.21	7.64	9.39	7.41	2.11	12.19	8.18
F6	9.7	10.11	7.86	11.22	2.66	0	2.21	2.69	5.78	6.25	7.11	5.62	5.98	4.54	6.52	8.12	5.81	2.27	10.57	6.8
F7	10.87	11.29	8.89	12.35	1.6	2.21	0	1.44	6.97	7.49	8.33	6.85	7.13	5.3	7.57	9.25	7.07	1.49	11.84	7.53
F8	11.37	11.78	9.37	12.85	1.35	2.69	1.44	0	7.37	7.93	8.75	7.27	7.51	5.54	7.91	9.63	7.53	1.82	12.3	7.95
F9	7.32	7.59	7.15	8.98	7.18	5.78	6.97	7.37	0	1.97	2.36	1.43	1.43	3.95	2.46	3.36	2.25	7.1	6.25	8.02
F10	6.31	6.58	6.36	7.97	7.78	6.25	7.49	7.93	1.97	0	1.95	1.69	2.35	4.93	3.31	3.48	1.58	7.55	5.41	7.52
F11	6.64	6.85	7.09	8.25	8.57	7.11	8.33	8.75	2.36	1.95	0	2.43	2.44	5.27	3.03	2.54	2.58	8.42	4.89	8.45
F12	6.91	7.21	6.67	8.58	7.1	5.62	6.85	7.27	1.43	1.69	2.43	0	1.91	4.2	2.95	3.68	1.79	6.94	6.14	7.54
F13	7.72	7.98	7.63	9.38	7.29	5.98	7.13	7.51	1.43	2.35	2.44	1.91	0	3.77	1.98	3.08	2.72	7.3	6.39	8.48
F14	10.04	10.36	9.23	11.7	5.21	4.54	5.3	5.54	3.95	4.93	5.27	4.2	3.77	0	3.65	5.52	4.94	5.67	9.22	9.23
F15	8.62	8.87	8.65	10.26	7.64	6.52	7.57	7.91	2.46	3.31	3.03	2.95	1.98	3.65	0	2.82	3.74	7.81	6.82	9.5
F16	7.96	8.11	8.66	9.49	9.39	8.12	9.25	9.63	3.36	3.48	2.54	3.68	3.08	5.52	2.82	0	4.11	9.43	5.28	10.04
D1	6.09	6.4	5.86	7.76	7.41	5.81	7.07	7.53	2.25	1.58	2.58	1.79	2.72	4.94	3.74	4.11	0	7.09	5.73	6.9
D2	10.65	11.06	8.56	12.09	2.11	2.27	1.49	1.82	7.1	7.55	8.42	6.94	7.3	5.67	7.81	9.43	7.09	0	11.82	7.08
D3	5.21	5.11	7.34	6.21	12.19	10.57	11.84	12.3	6.25	5.41	4.89	6.14	6.39	9.22	6.82	5.28	5.73	11.82	0	9.66
D4	6.32	6.71	3.55	7.14	8.18	6.8	7.53	7.95	8.02	7.52	8.45	7.54	8.48	9.23	9.5	10.04	6.9	7.08	9.66	0
;

#### DEMANDA DE POLICÍAS (por nodo i)
param dem :=
F1 25
F2 25
F3 25
F4 75
F5 50
F6 50
F7 50
F8 75
F9 75
F10 125
F11 125
F12 50
F13 25
F14 125
F15 125
F16 75
;

#### DEMANDA DE VEHÍCULOS (por tipo)
param mu:
    1   2 :=
 F1  0  1
 F2  0  1
 F3  0  1
 F4  0  2
 F5  0  2
 F6  0  1
 F7  0  2
 F8  0  1
 F9  0  1
 F10  0  3
 F11  0  2
 F12  0  2
 F13  0  1
 F14  0  3
 F15  0  3
 F16  0  1
;

#### TIEMPOS DE SERVICIO [horas]
param s :=
F1 0.36
F2 0.42
F3 0.45
F4 1.12
F5 0.82
F6 0.90
F7 0.88
F8 1.09
F9 1.43
F10 2.23
F11 2.49
F12 0.90
F13 0.37
F14 2.00
F15 1.77
F16 1.33
;

#### VENTANAS DE TIEMPO [horas]
param alpha :=
F1 9
F2 10
F3 9
F4 12
F5 14
F6 6
F7 9
F8 6
F9 10
F10 7
F11 11
F12 9
F13 11
F14 9
F15 7
F16 14
;

param beta :=
F1 17
F2 20
F3 16
F4 21
F5 21
F6 10
F7 15
F8 11
F9 16
F10 16
F11 15
F12 18
F13 18
F14 15
F15 13
F16 22
;

#### PRIORIDAD DE LOS NODOS
param P :=
F1 0.267
F2 0.366
F3 0.305
F4 0.226
F5 0.230
F6 0.279
F7 0.403
F8 0.195
F9 0.290
F10 0.324
F11 0.358
F12 0.234
F13 0.193
F14 0.342
F15 0.512
F16 0.268
;

